(declare-const a Real)
(declare-const b Real)
(declare-const c Real)
(assert (<= (+ (pow a 2) (pow b 2) (pow c 2) (* a b) (* a c) (* b c)) 2))
(assert (> a 0))
(assert (> b 0))
(assert (> c 0))
(assert (not (<= (+ 6 (* (pow (* 2 a c (pow (+ a b) (+ -4 (* -4 a b))) (pow (+ a c) -6)) (pow (+ 5 (* 2 a b)) -1)) (+ -5 (* -2 a b))) (* (pow (+ b c) -2) (+ -2 (* -2 b c)))) 0)))
(check-sat)
(get-model)
(exit)